500
[119,123,142,162,169,171,180,182,186,194,196,198,204,207,223,224,230,232,233,234,239,241,246,247,252,254,257,263,265,273,277,278,286,302,315,318,325,328,338,346,356,357,358,368,372,375,388,389]
[1,1,1,1,1,1,1,1,1,1,1,1,2,1,1,1,1,1,1,1,1,1,1,1,1,1,1,1,1,1,1,1,1,1,1,1,1,1,1,1,2,1,1,1,1,1,1,1]
